NAME          
ROWS
 N  OBJ
 L  c1
 L  c2
 L  c3
 L  c4
 L  c5
COLUMNS
    MARKER    'MARKER'                 'INTORG'
    x[1]      c1        2
    x[1]      c2        881
    x[1]      c3        160
    x[1]      c4        732
    x[1]      c5        782
    x[1]      OBJ       -33
    x[2]      c1        834
    x[2]      c2        220
    x[2]      c3        262
    x[2]      c4        284
    x[2]      c5        636
    x[2]      OBJ       -79
    x[3]      c1        341
    x[3]      c2        422
    x[3]      c3        763
    x[3]      c4        794
    x[3]      c5        333
    x[3]      OBJ       -956
    x[4]      c1        977
    x[4]      c2        931
    x[4]      c3        231
    x[4]      c4        39
    x[4]      c5        584
    x[4]      OBJ       -271
    x[5]      c1        592
    x[5]      c2        115
    x[5]      c3        479
    x[5]      c4        734
    x[5]      c5        988
    x[5]      OBJ       -991
    x[6]      c1        124
    x[6]      c2        575
    x[6]      c3        726
    x[6]      c4        682
    x[6]      c5        705
    x[6]      OBJ       -474
    x[7]      c1        445
    x[7]      c2        41
    x[7]      c3        632
    x[7]      c4        350
    x[7]      c5        637
    x[7]      OBJ       -577
    x[8]      c1        108
    x[8]      c2        692
    x[8]      c3        960
    x[8]      c4        742
    x[8]      c5        120
    x[8]      OBJ       -200
    x[9]      c1        988
    x[9]      c2        427
    x[9]      c3        397
    x[9]      c4        826
    x[9]      c5        607
    x[9]      OBJ       -225
    x[10]     c1        405
    x[10]     c2        158
    x[10]     c3        367
    x[10]     c4        871
    x[10]     c5        884
    x[10]     OBJ       -92
    x[11]     c1        283
    x[11]     c2        142
    x[11]     c3        401
    x[11]     c4        530
    x[11]     c5        816
    x[11]     OBJ       -678
    x[12]     c1        639
    x[12]     c2        518
    x[12]     c3        920
    x[12]     c4        931
    x[12]     c5        426
    x[12]     OBJ       -857
    x[13]     c1        956
    x[13]     c2        595
    x[13]     c3        215
    x[13]     c4        797
    x[13]     c5        509
    x[13]     OBJ       -704
    x[14]     c1        170
    x[14]     c2        260
    x[14]     c3        34
    x[14]     c4        953
    x[14]     c5        345
    x[14]     OBJ       -161
    x[15]     c1        236
    x[15]     c2        830
    x[15]     c3        857
    x[15]     c4        544
    x[15]     c5        232
    x[15]     OBJ       -68
    x[16]     c1        70
    x[16]     c2        846
    x[16]     c3        143
    x[16]     c4        108
    x[16]     c5        720
    x[16]     OBJ       -663
    x[17]     c1        772
    x[17]     c2        415
    x[17]     c3        318
    x[17]     c4        972
    x[17]     c5        681
    x[17]     OBJ       -433
    x[18]     c1        226
    x[18]     c2        226
    x[18]     c3        361
    x[18]     c4        763
    x[18]     c5        353
    x[18]     OBJ       -132
    x[19]     c1        813
    x[19]     c2        878
    x[19]     c3        516
    x[19]     c4        382
    x[19]     c5        361
    x[19]     OBJ       -629
    x[20]     c1        156
    x[20]     c2        175
    x[20]     c3        129
    x[20]     c4        291
    x[20]     c5        361
    x[20]     OBJ       -388
    x[21]     c1        971
    x[21]     c2        944
    x[21]     c3        204
    x[21]     c4        774
    x[21]     c5        827
    x[21]     OBJ       -873
    x[22]     c1        644
    x[22]     c2        379
    x[22]     c3        105
    x[22]     c4        99
    x[22]     c5        553
    x[22]     OBJ       -324
    x[23]     c1        753
    x[23]     c2        79
    x[23]     c3        703
    x[23]     c4        739
    x[23]     c5        671
    x[23]     OBJ       -492
    x[24]     c1        567
    x[24]     c2        132
    x[24]     c3        395
    x[24]     c4        886
    x[24]     c5        966
    x[24]     OBJ       -321
    x[25]     c1        866
    x[25]     c2        55
    x[25]     c3        398
    x[25]     c4        179
    x[25]     c5        305
    x[25]     OBJ       -28
RHS
    rhs       c1        6469
    rhs       c2        5468
    rhs       c3        5338
    rhs       c4        7501
    rhs       c5        7201
RANGES
BOUNDS
 BV bounds    x[1]
 BV bounds    x[2]
 BV bounds    x[3]
 BV bounds    x[4]
 BV bounds    x[5]
 BV bounds    x[6]
 BV bounds    x[7]
 BV bounds    x[8]
 BV bounds    x[9]
 BV bounds    x[10]
 BV bounds    x[11]
 BV bounds    x[12]
 BV bounds    x[13]
 BV bounds    x[14]
 BV bounds    x[15]
 BV bounds    x[16]
 BV bounds    x[17]
 BV bounds    x[18]
 BV bounds    x[19]
 BV bounds    x[20]
 BV bounds    x[21]
 BV bounds    x[22]
 BV bounds    x[23]
 BV bounds    x[24]
 BV bounds    x[25]
ENDATA
